(declare-const X String)
; Host\x3a\dATTENTION\x3A.*User-Agent\x3A
(assert (not (str.in_re X (re.++ (str.to_re "Host:") (re.range "0" "9") (str.to_re "ATTENTION:") (re.* re.allchar) (str.to_re "User-Agent:\u{a}")))))
; /appendChild\x28\s*document\x2ecreateElement\x28\s*[\x22\x27]button[\x22\x27].*?outerText\s*=\s*[\x22\x27]{2}/smi
(assert (str.in_re X (re.++ (str.to_re "/appendChild(") (re.* (re.union (str.to_re " ") (str.to_re "\u{9}") (str.to_re "\u{a}") (str.to_re "\u{c}") (str.to_re "\u{d}"))) (str.to_re "document.createElement(") (re.* (re.union (str.to_re " ") (str.to_re "\u{9}") (str.to_re "\u{a}") (str.to_re "\u{c}") (str.to_re "\u{d}"))) (re.union (str.to_re "\u{22}") (str.to_re "'")) (str.to_re "button") (re.union (str.to_re "\u{22}") (str.to_re "'")) (re.* re.allchar) (str.to_re "outerText") (re.* (re.union (str.to_re " ") (str.to_re "\u{9}") (str.to_re "\u{a}") (str.to_re "\u{c}") (str.to_re "\u{d}"))) (str.to_re "=") (re.* (re.union (str.to_re " ") (str.to_re "\u{9}") (str.to_re "\u{a}") (str.to_re "\u{c}") (str.to_re "\u{d}"))) ((_ re.loop 2 2) (re.union (str.to_re "\u{22}") (str.to_re "'"))) (str.to_re "/smi\u{a}"))))
; /filename=[^\n]*\x2ef4a/i
(assert (str.in_re X (re.++ (str.to_re "/filename=") (re.* (re.comp (str.to_re "\u{a}"))) (str.to_re ".f4a/i\u{a}"))))
; /^[0-9]+\.d{3}? *$/
(assert (str.in_re X (re.++ (str.to_re "/") (re.+ (re.range "0" "9")) (str.to_re ".") ((_ re.loop 3 3) (str.to_re "d")) (re.* (str.to_re " ")) (str.to_re "/\u{a}"))))
; /\x00{7}\x55\x00{3}\x21.{4}[^\x00]*?[\x22\x27\x29\x3b]/
(assert (not (str.in_re X (re.++ (str.to_re "/") ((_ re.loop 7 7) (str.to_re "\u{0}")) (str.to_re "U") ((_ re.loop 3 3) (str.to_re "\u{0}")) (str.to_re "!") ((_ re.loop 4 4) re.allchar) (re.* (re.comp (str.to_re "\u{0}"))) (re.union (str.to_re "\u{22}") (str.to_re "'") (str.to_re ")") (str.to_re ";")) (str.to_re "/\u{a}")))))
(check-sat)

(exit)
